0	4	0
1	53	14
2	41	5
3	8	11
4	21	17
5	38	9
6	59	4
7	28	11
8	54	5
9	4	11
10	3	7
11	36	1
12	9	19
13	28	0
14	33	11
15	33	8
16	5	5
17	17	1
18	52	5
19	42	7
20	34	5
21	54	10
22	3	4
23	18	0
24	25	1
25	58	17
